c File: flat50_3_0.col
c
c SOURCE: Joseph Culberson (joe@cs.ualberta.ca)
c DESCRIPTION: Quasi-random coloring problem
c              generated with flatness = 0
c                             probability = 0.139
c                             known coloring = 3
c                             random seed = 1102
c              Creation Date:  Tue Jun  9 12:01:11 1998
c Maximum degree = 8 Minimum degree = 1
c p edge 50 115
c cnf created by edge2cnf
p cnf 150 545
-1 -2 0
-1 -3 0
-2 -3 0
1 2 3 0
-4 -5 0
-4 -6 0
-5 -6 0
4 5 6 0
-7 -8 0
-7 -9 0
-8 -9 0
7 8 9 0
-10 -11 0
-10 -12 0
-11 -12 0
10 11 12 0
-13 -14 0
-13 -15 0
-14 -15 0
13 14 15 0
-16 -17 0
-16 -18 0
-17 -18 0
16 17 18 0
-19 -20 0
-19 -21 0
-20 -21 0
19 20 21 0
-22 -23 0
-22 -24 0
-23 -24 0
22 23 24 0
-25 -26 0
-25 -27 0
-26 -27 0
25 26 27 0
-28 -29 0
-28 -30 0
-29 -30 0
28 29 30 0
-31 -32 0
-31 -33 0
-32 -33 0
31 32 33 0
-34 -35 0
-34 -36 0
-35 -36 0
34 35 36 0
-37 -38 0
-37 -39 0
-38 -39 0
37 38 39 0
-40 -41 0
-40 -42 0
-41 -42 0
40 41 42 0
-43 -44 0
-43 -45 0
-44 -45 0
43 44 45 0
-46 -47 0
-46 -48 0
-47 -48 0
46 47 48 0
-49 -50 0
-49 -51 0
-50 -51 0
49 50 51 0
-52 -53 0
-52 -54 0
-53 -54 0
52 53 54 0
-55 -56 0
-55 -57 0
-56 -57 0
55 56 57 0
-58 -59 0
-58 -60 0
-59 -60 0
58 59 60 0
-61 -62 0
-61 -63 0
-62 -63 0
61 62 63 0
-64 -65 0
-64 -66 0
-65 -66 0
64 65 66 0
-67 -68 0
-67 -69 0
-68 -69 0
67 68 69 0
-70 -71 0
-70 -72 0
-71 -72 0
70 71 72 0
-73 -74 0
-73 -75 0
-74 -75 0
73 74 75 0
-76 -77 0
-76 -78 0
-77 -78 0
76 77 78 0
-79 -80 0
-79 -81 0
-80 -81 0
79 80 81 0
-82 -83 0
-82 -84 0
-83 -84 0
82 83 84 0
-85 -86 0
-85 -87 0
-86 -87 0
85 86 87 0
-88 -89 0
-88 -90 0
-89 -90 0
88 89 90 0
-91 -92 0
-91 -93 0
-92 -93 0
91 92 93 0
-94 -95 0
-94 -96 0
-95 -96 0
94 95 96 0
-97 -98 0
-97 -99 0
-98 -99 0
97 98 99 0
-100 -101 0
-100 -102 0
-101 -102 0
100 101 102 0
-103 -104 0
-103 -105 0
-104 -105 0
103 104 105 0
-106 -107 0
-106 -108 0
-107 -108 0
106 107 108 0
-109 -110 0
-109 -111 0
-110 -111 0
109 110 111 0
-112 -113 0
-112 -114 0
-113 -114 0
112 113 114 0
-115 -116 0
-115 -117 0
-116 -117 0
115 116 117 0
-118 -119 0
-118 -120 0
-119 -120 0
118 119 120 0
-121 -122 0
-121 -123 0
-122 -123 0
121 122 123 0
-124 -125 0
-124 -126 0
-125 -126 0
124 125 126 0
-127 -128 0
-127 -129 0
-128 -129 0
127 128 129 0
-130 -131 0
-130 -132 0
-131 -132 0
130 131 132 0
-133 -134 0
-133 -135 0
-134 -135 0
133 134 135 0
-136 -137 0
-136 -138 0
-137 -138 0
136 137 138 0
-139 -140 0
-139 -141 0
-140 -141 0
139 140 141 0
-142 -143 0
-142 -144 0
-143 -144 0
142 143 144 0
-145 -146 0
-145 -147 0
-146 -147 0
145 146 147 0
-148 -149 0
-148 -150 0
-149 -150 0
148 149 150 0
-79 -1 0
-80 -2 0
-81 -3 0
-97 -1 0
-98 -2 0
-99 -3 0
-121 -1 0
-122 -2 0
-123 -3 0
-130 -1 0
-131 -2 0
-132 -3 0
-145 -1 0
-146 -2 0
-147 -3 0
-58 -4 0
-59 -5 0
-60 -6 0
-88 -4 0
-89 -5 0
-90 -6 0
-118 -4 0
-119 -5 0
-120 -6 0
-127 -4 0
-128 -5 0
-129 -6 0
-139 -4 0
-140 -5 0
-141 -6 0
-85 -7 0
-86 -8 0
-87 -9 0
-94 -7 0
-95 -8 0
-96 -9 0
-109 -7 0
-110 -8 0
-111 -9 0
-61 -10 0
-62 -11 0
-63 -12 0
-70 -10 0
-71 -11 0
-72 -12 0
-118 -10 0
-119 -11 0
-120 -12 0
-142 -10 0
-143 -11 0
-144 -12 0
-64 -13 0
-65 -14 0
-66 -15 0
-70 -13 0
-71 -14 0
-72 -15 0
-79 -13 0
-80 -14 0
-81 -15 0
-103 -13 0
-104 -14 0
-105 -15 0
-115 -13 0
-116 -14 0
-117 -15 0
-148 -13 0
-149 -14 0
-150 -15 0
-67 -16 0
-68 -17 0
-69 -18 0
-52 -19 0
-53 -20 0
-54 -21 0
-64 -19 0
-65 -20 0
-66 -21 0
-85 -19 0
-86 -20 0
-87 -21 0
-115 -19 0
-116 -20 0
-117 -21 0
-73 -22 0
-74 -23 0
-75 -24 0
-79 -22 0
-80 -23 0
-81 -24 0
-148 -22 0
-149 -23 0
-150 -24 0
-64 -25 0
-65 -26 0
-66 -27 0
-76 -25 0
-77 -26 0
-78 -27 0
-82 -25 0
-83 -26 0
-84 -27 0
-94 -25 0
-95 -26 0
-96 -27 0
-106 -25 0
-107 -26 0
-108 -27 0
-127 -25 0
-128 -26 0
-129 -27 0
-139 -25 0
-140 -26 0
-141 -27 0
-73 -28 0
-74 -29 0
-75 -30 0
-85 -28 0
-86 -29 0
-87 -30 0
-91 -28 0
-92 -29 0
-93 -30 0
-121 -28 0
-122 -29 0
-123 -30 0
-130 -28 0
-131 -29 0
-132 -30 0
-145 -28 0
-146 -29 0
-147 -30 0
-52 -31 0
-53 -32 0
-54 -33 0
-55 -31 0
-56 -32 0
-57 -33 0
-82 -31 0
-83 -32 0
-84 -33 0
-100 -31 0
-101 -32 0
-102 -33 0
-115 -31 0
-116 -32 0
-117 -33 0
-121 -31 0
-122 -32 0
-123 -33 0
-145 -31 0
-146 -32 0
-147 -33 0
-85 -34 0
-86 -35 0
-87 -36 0
-133 -34 0
-134 -35 0
-135 -36 0
-76 -37 0
-77 -38 0
-78 -39 0
-103 -37 0
-104 -38 0
-105 -39 0
-109 -37 0
-110 -38 0
-111 -39 0
-127 -37 0
-128 -38 0
-129 -39 0
-58 -40 0
-59 -41 0
-60 -42 0
-112 -40 0
-113 -41 0
-114 -42 0
-115 -40 0
-116 -41 0
-117 -42 0
-133 -40 0
-134 -41 0
-135 -42 0
-79 -43 0
-80 -44 0
-81 -45 0
-91 -43 0
-92 -44 0
-93 -45 0
-97 -43 0
-98 -44 0
-99 -45 0
-52 -46 0
-53 -47 0
-54 -48 0
-58 -46 0
-59 -47 0
-60 -48 0
-91 -46 0
-92 -47 0
-93 -48 0
-103 -46 0
-104 -47 0
-105 -48 0
-130 -46 0
-131 -47 0
-132 -48 0
-136 -46 0
-137 -47 0
-138 -48 0
-142 -46 0
-143 -47 0
-144 -48 0
-52 -49 0
-53 -50 0
-54 -51 0
-58 -49 0
-59 -50 0
-60 -51 0
-61 -49 0
-62 -50 0
-63 -51 0
-103 -49 0
-104 -50 0
-105 -51 0
-136 -49 0
-137 -50 0
-138 -51 0
-142 -49 0
-143 -50 0
-144 -51 0
-148 -49 0
-149 -50 0
-150 -51 0
-103 -52 0
-104 -53 0
-105 -54 0
-106 -52 0
-107 -53 0
-108 -54 0
-115 -52 0
-116 -53 0
-117 -54 0
-133 -52 0
-134 -53 0
-135 -54 0
-106 -55 0
-107 -56 0
-108 -57 0
-124 -55 0
-125 -56 0
-126 -57 0
-145 -55 0
-146 -56 0
-147 -57 0
-109 -58 0
-110 -59 0
-111 -60 0
-115 -58 0
-116 -59 0
-117 -60 0
-118 -58 0
-119 -59 0
-120 -60 0
-130 -58 0
-131 -59 0
-132 -60 0
-103 -61 0
-104 -62 0
-105 -63 0
-139 -61 0
-140 -62 0
-141 -63 0
-103 -64 0
-104 -65 0
-105 -66 0
-109 -64 0
-110 -65 0
-111 -66 0
-142 -64 0
-143 -65 0
-144 -66 0
-109 -67 0
-110 -68 0
-111 -69 0
-133 -67 0
-134 -68 0
-135 -69 0
-103 -73 0
-104 -74 0
-105 -75 0
-124 -76 0
-125 -77 0
-126 -78 0
-148 -76 0
-149 -77 0
-150 -78 0
-148 -79 0
-149 -80 0
-150 -81 0
-106 -82 0
-107 -83 0
-108 -84 0
-136 -82 0
-137 -83 0
-138 -84 0
-109 -85 0
-110 -86 0
-111 -87 0
-127 -85 0
-128 -86 0
-129 -87 0
-130 -85 0
-131 -86 0
-132 -87 0
-133 -85 0
-134 -86 0
-135 -87 0
-115 -91 0
-116 -92 0
-117 -93 0
-124 -91 0
-125 -92 0
-126 -93 0
-136 -91 0
-137 -92 0
-138 -93 0
-112 -94 0
-113 -95 0
-114 -96 0
-124 -94 0
-125 -95 0
-126 -96 0
-136 -97 0
-137 -98 0
-138 -99 0
-148 -97 0
-149 -98 0
-150 -99 0
-106 -100 0
-107 -101 0
-108 -102 0
-115 -100 0
-116 -101 0
-117 -102 0
